p cnf 10 20
v 10 1 8 3 10 4 4 6 6 2
-10 8 5 0
4 -5 -3 0
-10 4 -6 0
6 -9 -4 0
9 -2 -4 0
-1 -6 3 0
7 -6 1 0
6 -3 -5 0
-4 8 5 0
-6 1 5 0
-8 1 5 0
-8 -9 7 0
-2 3 9 0
4 9 -5 0
-1 9 -6 0
-9 -8 1 0
-9 7 -4 0
-4 -9 6 0
-6 5 2 0
9 -3 6 0

